; benchmark generated from python API
(set-info :status unknown)
(declare-fun S_2 () Real)
(declare-fun B () Real)
(declare-fun S_4 () Real)
(declare-fun A_1 () Real)
(declare-fun L_1 () Real)
(declare-fun S_0 () Real)
(declare-fun L_0 () Real)
(declare-fun A_0 () Real)
(declare-fun S_1 () Real)
(declare-fun S_3 () Real)
(declare-fun A_2 () Real)
(declare-fun A_3 () Real)
(declare-fun A_4 () Real)
(assert
 (let (($x2695 (<= (+ (* (/ 1.0 2.0) L_1) (* (- (/ 1.0 2.0)) A_1) (* (- (/ 1.0 2.0)) S_4) S_2) 0.0)))
 (let (($x1696 (<= (+ (* (- 2.0) S_4) (* (- 1.0) A_0) (* 3.0 S_2) L_0) 0.0)))
 (let (($x12553 (<= (+ (* (- 1.0) A_0) (* (- 1.0) S_3) (* 2.0 S_1) L_0) 0.0)))
 (let ((?x236 (* (- 1.0) B)))
 (let ((?x1051 (* (/ 1.0 2.0) S_4)))
 (let ((?x1055 (* (- (/ 1.0 2.0)) A_1)))
 (let ((?x1054 (* (/ 1.0 2.0) L_1)))
 (let (($x2452 (<= (+ (* (- (/ 1.0 2.0)) S_4) (* (- 1.0) A_0) (* (/ 3.0 2.0) S_1) L_0) 0.0)))
 (let (($x34 (>= L_0 0.0)))
 (let (($x13944 (not (<= B 5.0))))
 (let (($x2697 (<= (+ (* (- 1.0) L_1) A_1 (* (- 1.0) S_2)) 0.0)))
 (let (($x14407 (<= 0.0 (+ L_1 (* (- 1.0) A_1) (* (/ 1.0 3.0) S_4) (* (/ 2.0 3.0) S_0)))))
 (let (($x20471 (or (not $x14407) (<= (+ (* (- (/ 1.0 2.0)) L_1) (* (/ 1.0 2.0) A_1) (* (- (/ 1.0 2.0)) S_4)) (- 5.0)))))
 (let ((?x1071 (* (- (/ 3.0 2.0)) B)))
 (let ((?x344 (* (- 1.0) S_1)))
 (let ((?x1043 (* (- (/ 1.0 2.0)) S_4)))
 (let ((?x1070 (* (/ 3.0 2.0) A_1)))
 (let ((?x1068 (* (- (/ 3.0 2.0)) L_1)))
 (let (($x51 (= L_1 L_0)))
 (let ((?x1951 (* 4.0 B)))
 (let (($x1939 (<= (+ (* 4.0 L_1) (* (- 4.0) A_1) S_4 ?x1951 (* 3.0 S_0)) 0.0)))
 (let ((?x1924 (* 2.0 S_0)))
 (let ((?x667 (* 3.0 B)))
 (let (($x20302 (or $x51 (<= (+ (* 3.0 L_1) (* (- 3.0) A_1) ?x667 S_3 ?x1924) 0.0))))
 (let (($x1915 (<= (+ (* 2.0 L_1) (* (- 2.0) A_1) (* 2.0 B) S_2 S_0) 0.0)))
 (let (($x15433 (not (<= 0.0 (+ (* 2.0 L_1) (* (- 2.0) A_1) S_4 B S_0)))))
 (let (($x16070 (or $x2697 (<= (+ (* (/ 1.0 4.0) S_4) (* (- 1.0) S_2) (* (/ 3.0 4.0) S_0)) 0.0))))
 (let (($x5902 (<= (+ (* (- 2.0) L_1) (* 2.0 A_1) S_4 (* (- 3.0) S_3)) 0.0)))
 (let (($x15678 (<= (+ (* (- 1.0) L_1) A_1 (* (- 1.0) S_3)) (- 5.0))))
 (let ((?x1082 (* (- 2.0) B)))
 (let ((?x357 (* (- 1.0) S_3)))
 (let ((?x1080 (* 2.0 A_1)))
 (let ((?x1079 (* (- 2.0) L_1)))
 (let ((?x1917 (* (- 3.0) B)))
 (let ((?x1081 (* (- 1.0) S_0)))
 (let ((?x2129 (* (- 2.0) S_3)))
 (let ((?x1937 (* 3.0 A_1)))
 (let ((?x1947 (* (- 3.0) L_1)))
 (let (($x472 (<= (+ (* (- (/ 1.0 2.0)) L_1) (* (/ 1.0 2.0) A_1) ?x1043 (* (- (/ 1.0 2.0)) B)) (- 5.0))))
 (let (($x117 (>= S_4 S_3)))
 (let (($x108 (>= S_1 S_0)))
 (let (($x111 (>= S_2 S_1)))
 (let (($x114 (>= S_3 S_2)))
 (let (($x119 (>= A_1 A_0)))
 (let (($x121 (>= A_3 A_2)))
 (let (($x122 (>= A_4 A_3)))
 (and (<= (+ A_1 (* (- 1.0) L_1)) S_4) $x122 $x121 $x119 $x114 $x111 $x108 $x117 (or (not (<= 0.0 (+ (* (- 1.0) L_1) L_0))) $x51) (or $x51 (<= (+ L_1 (* (- 1.0) A_1) S_1 B) 0.0)) (<= (+ ?x1068 ?x1070 ?x1043 (* (- 1.0) A_0) ?x1071 L_0) 0.0) (<= (+ ?x1079 ?x1080 (* (- 1.0) S_4) ?x1081 ?x1082) 0.0) (or $x51 (<= (+ ?x1054 ?x1055 ?x1043 S_2 (* (/ 1.0 2.0) B)) 0.0)) (or (<= (+ (* (- (/ 1.0 3.0)) S_4) (* (/ 1.0 3.0) S_0)) (- 5.0)) $x14407) $x472 (or $x51 (<= (+ L_1 (* (- 1.0) A_1) B S_0) (- 5.0))) (<= (+ ?x1079 ?x1080 S_4 (* (- 3.0) S_3) ?x1082) 0.0) (<= (+ (* (/ 1.0 3.0) S_4) ?x357 (* (/ 2.0 3.0) S_1)) 0.0) (or $x2697 (<= (+ (* (- 1.0) S_2) S_0) (- 5.0))) (or $x2697 (<= (+ S_3 (* (- 3.0) S_2) ?x1924) 0.0)) (<= (+ (* (- 1.0) L_1) A_1 (* (- 1.0) S_2) ?x236) 0.0) (not (<= 0.0 (+ S_4 ?x236 ?x357))) (<= (+ ?x1079 ?x1080 (* (- 1.0) A_0) ?x357 ?x1082 L_0) 0.0) (<= (+ ?x1947 ?x1937 ?x2129 ?x1081 ?x1917) 0.0) (<= (+ (* (- 1.0) L_1) A_1 ?x357 ?x236) (- 5.0)) (<= (+ ?x1079 ?x1080 ?x357 ?x344 ?x1082) 0.0) (or (<= (+ (* (- (/ 1.0 3.0)) S_4) (* (/ 1.0 3.0) S_0)) (- 5.0)) $x15678) (or (<= (+ (* (- (/ 1.0 2.0)) S_3) (* (/ 1.0 2.0) S_0)) (- 5.0)) $x15678) (or $x5902 (<= (+ ?x1051 ?x357 (* (/ 1.0 2.0) S_0)) 0.0)) $x16070 (or $x51 $x15433) (or $x51 $x1915) $x20302 (or $x51 $x1939) (or $x51 (not (<= 0.0 (+ ?x1054 ?x1055 ?x1051 (* (- (/ 1.0 2.0)) B))))) (<= (+ ?x1068 ?x1070 ?x1043 ?x344 ?x1071) 0.0) $x20471 (or $x2697 (not (<= 0.0 (+ S_4 ?x236 (* (- 2.0) S_2) S_0)))) $x13944 $x34 (not (>= (+ L_1 S_4 (* (- 1.0) A_2)) 0.0)) (<= (+ (* (- 1.0) S_4) S_2) (- 5.0)) (<= (+ (* (- 1.0) A_0) S_0 L_0) 0.0) $x2452 (<= (+ ?x1043 (* (/ 1.0 2.0) S_1)) (- 5.0)) (<= (+ L_1 (* (- 1.0) A_1) S_1) 0.0) (not (>= (+ ?x1054 ?x1055 ?x1051 ?x236) 0.0)) (<= (+ ?x357 S_1) (- 5.0)) $x12553 (<= (+ ?x2129 (* 3.0 S_1) ?x1081) 0.0) $x1696 (<= (+ (* (- 3.0) S_4) (* 4.0 S_2) ?x1081) 0.0) (<= (+ (* (- 1.0) S_4) (* 2.0 S_1) ?x1081) 0.0) (<= (+ (* (- 2.0) S_4) (* 3.0 S_2) ?x344) 0.0) (not (>= (+ S_4 ?x1917 ?x344) 0.0)) (not (>= (+ S_4 ?x1917 (* (- 1.0) A_0) L_0) 0.0)) (not (>= (+ S_4 (* (- 4.0) B) ?x1081) 0.0)) $x2695 (not (>= (+ S_4 ?x1082 (* (- 1.0) S_2)) 0.0))))))))))))))))))))))))))))))))))))))))))))))))))
(check-sat)
